c 0.0037429332733154297 (encode time in sec)
p cnf 231 332
1 2 3 4 5 0
1 2 3 -4 6 0
1 2 -3 4 6 0
1 2 -3 -4 5 0
1 -2 3 4 6 0
1 -2 3 -4 6 0
1 -2 -3 4 6 0
1 -2 -3 -4 5 0
-1 2 3 4 6 0
-1 2 3 -4 6 0
-1 2 -3 4 6 0
-1 2 -3 -4 5 0
-1 -2 3 4 0
-1 -2 3 -4 0
-1 -2 -3 4 0
-1 -2 -3 -4 0
7 1 2 3 4 8 0
7 1 2 3 -4 11 0
7 1 2 -3 4 9 0
7 1 2 -3 -4 10 0
7 1 -2 3 4 12 0
7 1 -2 3 -4 13 0
7 1 -2 -3 4 14 0
7 1 -2 -3 -4 15 0
7 -1 2 3 4 16 0
7 -1 2 3 -4 17 0
7 -1 2 -3 4 18 0
7 -1 2 -3 -4 23 0
-7 1 2 3 4 29 0
-7 1 2 3 -4 21 0
-7 1 2 -3 4 19 0
-7 1 2 -3 -4 24 0
-7 1 -2 3 4 14 0
-7 1 -2 3 -4 20 0
-7 1 -2 -3 4 12 0
-7 1 -2 -3 -4 26 0
-7 -1 2 3 4 25 0
-7 -1 2 3 -4 28 0
-7 -1 2 -3 4 27 0
-7 -1 2 -3 -4 22 0
30 31 32 33 7 1 2 3 4 34 0
30 31 32 33 7 1 2 3 -4 56 0
30 31 32 33 7 1 2 -3 4 84 0
30 31 32 33 7 1 2 -3 -4 157 0
30 31 32 33 7 1 -2 3 4 206 0
30 31 32 33 7 1 -2 3 -4 85 0
30 31 32 33 7 1 -2 -3 4 182 0
30 31 32 33 7 1 -2 -3 -4 127 0
30 31 32 33 7 -1 2 3 4 207 0
30 31 32 33 7 -1 2 3 -4 128 0
30 31 32 33 7 -1 2 -3 4 86 0
30 31 32 33 7 -1 2 -3 -4 129 0
30 31 32 33 -7 1 2 3 4 130 0
30 31 32 33 -7 1 2 3 -4 87 0
30 31 32 33 -7 1 2 -3 4 169 0
30 31 32 33 -7 1 2 -3 -4 170 0
30 31 32 33 -7 1 -2 3 4 194 0
30 31 32 33 -7 1 -2 3 -4 218 0
30 31 32 33 -7 1 -2 -3 4 102 0
30 31 32 33 -7 1 -2 -3 -4 229 0
30 31 32 33 -7 -1 2 3 4 105 0
30 31 32 33 -7 -1 2 3 -4 209 0
30 31 32 33 -7 -1 2 -3 4 155 0
30 31 32 33 -7 -1 2 -3 -4 83 0
30 31 32 -33 7 1 2 3 4 34 0
30 31 32 -33 7 1 2 3 -4 107 0
30 31 32 -33 7 1 2 -3 4 185 0
30 31 32 -33 7 1 2 -3 -4 157 0
30 31 32 -33 7 1 -2 3 4 35 0
30 31 32 -33 7 1 -2 3 -4 92 0
30 31 32 -33 7 1 -2 -3 4 119 0
30 31 32 -33 7 1 -2 -3 -4 158 0
30 31 32 -33 7 -1 2 3 4 108 0
30 31 32 -33 7 -1 2 3 -4 88 0
30 31 32 -33 7 -1 2 -3 4 49 0
30 31 32 -33 7 -1 2 -3 -4 91 0
30 31 32 -33 -7 1 2 3 4 120 0
30 31 32 -33 -7 1 2 3 -4 87 0
30 31 32 -33 -7 1 2 -3 4 169 0
30 31 32 -33 -7 1 2 -3 -4 103 0
30 31 32 -33 -7 1 -2 3 4 171 0
30 31 32 -33 -7 1 -2 3 -4 65 0
30 31 32 -33 -7 1 -2 -3 4 40 0
30 31 32 -33 -7 1 -2 -3 -4 95 0
30 31 32 -33 -7 -1 2 3 4 219 0
30 31 32 -33 -7 -1 2 3 -4 48 0
30 31 32 -33 -7 -1 2 -3 4 37 0
30 31 32 -33 -7 -1 2 -3 -4 83 0
30 31 -32 33 7 1 2 3 4 183 0
30 31 -32 33 7 1 2 3 -4 186 0
30 31 -32 33 7 1 2 -3 4 84 0
30 31 -32 33 7 1 2 -3 -4 71 0
30 31 -32 33 7 1 -2 3 4 172 0
30 31 -32 33 7 1 -2 3 -4 89 0
30 31 -32 33 7 1 -2 -3 4 38 0
30 31 -32 33 7 1 -2 -3 -4 185 0
30 31 -32 33 7 -1 2 3 4 108 0
30 31 -32 33 7 -1 2 3 -4 39 0
30 31 -32 33 7 -1 2 -3 4 211 0
30 31 -32 33 7 -1 2 -3 -4 72 0
30 31 -32 33 -7 1 2 3 4 118 0
30 31 -32 33 -7 1 2 3 -4 106 0
30 31 -32 33 -7 1 2 -3 4 221 0
30 31 -32 33 -7 1 2 -3 -4 193 0
30 31 -32 33 -7 1 -2 3 4 202 0
30 31 -32 33 -7 1 -2 3 -4 96 0
30 31 -32 33 -7 1 -2 -3 4 36 0
30 31 -32 33 -7 1 -2 -3 -4 139 0
30 31 -32 33 -7 -1 2 3 4 156 0
30 31 -32 33 -7 -1 2 3 -4 73 0
30 31 -32 33 -7 -1 2 -3 4 155 0
30 31 -32 33 -7 -1 2 -3 -4 230 0
30 31 -32 -33 7 1 2 3 4 34 0
30 31 -32 -33 7 1 2 3 -4 56 0
30 31 -32 -33 7 1 2 -3 4 84 0
30 31 -32 -33 7 1 2 -3 -4 117 0
30 31 -32 -33 7 1 -2 3 4 50 0
30 31 -32 -33 7 1 -2 3 -4 55 0
30 31 -32 -33 7 1 -2 -3 4 182 0
30 31 -32 -33 7 1 -2 -3 -4 90 0
30 31 -32 -33 7 -1 2 3 4 131 0
30 31 -32 -33 7 -1 2 3 -4 140 0
30 31 -32 -33 7 -1 2 -3 4 109 0
30 31 -32 -33 7 -1 2 -3 -4 208 0
30 31 -32 -33 -7 1 2 3 4 93 0
30 31 -32 -33 -7 1 2 3 -4 57 0
30 31 -32 -33 -7 1 2 -3 4 70 0
30 31 -32 -33 -7 1 2 -3 -4 195 0
30 31 -32 -33 -7 1 -2 3 4 210 0
30 31 -32 -33 -7 1 -2 3 -4 184 0
30 31 -32 -33 -7 1 -2 -3 4 110 0
30 31 -32 -33 -7 1 -2 -3 -4 95 0
30 31 -32 -33 -7 -1 2 3 4 187 0
30 31 -32 -33 -7 -1 2 3 -4 58 0
30 31 -32 -33 -7 -1 2 -3 4 41 0
30 31 -32 -33 -7 -1 2 -3 -4 222 0
30 -31 32 33 7 1 2 3 4 97 0
30 -31 32 33 7 1 2 3 -4 141 0
30 -31 32 33 7 1 2 -3 4 42 0
30 -31 32 33 7 1 2 -3 -4 159 0
30 -31 32 33 7 1 -2 3 4 111 0
30 -31 32 33 7 1 -2 3 -4 94 0
30 -31 32 33 7 1 -2 -3 4 38 0
30 -31 32 33 7 1 -2 -3 -4 199 0
30 -31 32 33 7 -1 2 3 4 196 0
30 -31 32 33 7 -1 2 3 -4 223 0
30 -31 32 33 7 -1 2 -3 4 173 0
30 -31 32 33 7 -1 2 -3 -4 72 0
30 -31 32 33 -7 1 2 3 4 130 0
30 -31 32 33 -7 1 2 3 -4 87 0
30 -31 32 33 -7 1 2 -3 4 149 0
30 -31 32 33 -7 1 2 -3 -4 195 0
30 -31 32 33 -7 1 -2 3 4 194 0
30 -31 32 33 -7 1 -2 3 -4 184 0
30 -31 32 33 -7 1 -2 -3 4 102 0
30 -31 32 33 -7 1 -2 -3 -4 160 0
30 -31 32 33 -7 -1 2 3 4 161 0
30 -31 32 33 -7 -1 2 3 -4 58 0
30 -31 32 33 -7 -1 2 -3 4 155 0
30 -31 32 33 -7 -1 2 -3 -4 83 0
30 -31 32 -33 7 1 2 3 4 97 0
30 -31 32 -33 7 1 2 3 -4 56 0
30 -31 32 -33 7 1 2 -3 4 212 0
30 -31 32 -33 7 1 2 -3 -4 150 0
30 -31 32 -33 7 1 -2 3 4 188 0
30 -31 32 -33 7 1 -2 3 -4 213 0
30 -31 32 -33 7 1 -2 -3 4 119 0
30 -31 32 -33 7 1 -2 -3 -4 214 0
30 -31 32 -33 7 -1 2 3 4 215 0
30 -31 32 -33 7 -1 2 3 -4 223 0
30 -31 32 -33 7 -1 2 -3 4 212 0
30 -31 32 -33 7 -1 2 -3 -4 189 0
30 -31 32 -33 -7 1 2 3 4 93 0
30 -31 32 -33 -7 1 2 3 -4 51 0
30 -31 32 -33 -7 1 2 -3 4 203 0
30 -31 32 -33 -7 1 2 -3 -4 112 0
30 -31 32 -33 -7 1 -2 3 4 174 0
30 -31 32 -33 -7 1 -2 3 -4 51 0
30 -31 32 -33 -7 1 -2 -3 4 162 0
30 -31 32 -33 -7 1 -2 -3 -4 98 0
30 -31 32 -33 -7 -1 2 3 4 197 0
30 -31 32 -33 -7 -1 2 3 -4 73 0
30 -31 32 -33 -7 -1 2 -3 4 43 0
30 -31 32 -33 -7 -1 2 -3 -4 230 0
30 -31 -32 33 7 1 2 3 4 97 0
30 -31 -32 33 7 1 2 3 -4 141 0
30 -31 -32 33 7 1 2 -3 4 42 0
30 -31 -32 33 7 1 2 -3 -4 159 0
30 -31 -32 33 7 1 -2 3 4 206 0
30 -31 -32 33 7 1 -2 3 -4 55 0
30 -31 -32 33 7 1 -2 -3 4 59 0
30 -31 -32 33 7 1 -2 -3 -4 132 0
30 -31 -32 33 7 -1 2 3 4 215 0
30 -31 -32 33 7 -1 2 3 -4 223 0
30 -31 -32 33 7 -1 2 -3 4 109 0
30 -31 -32 33 7 -1 2 -3 -4 224 0
30 -31 -32 33 -7 1 2 3 4 93 0
30 -31 -32 33 -7 1 2 3 -4 168 0
30 -31 -32 33 -7 1 2 -3 4 52 0
30 -31 -32 33 -7 1 2 -3 -4 195 0
30 -31 -32 33 -7 1 -2 3 4 174 0
30 -31 -32 33 -7 1 -2 3 -4 225 0
30 -31 -32 33 -7 1 -2 -3 4 163 0
30 -31 -32 33 -7 1 -2 -3 -4 226 0
30 -31 -32 33 -7 -1 2 3 4 187 0
30 -31 -32 33 -7 -1 2 3 -4 113 0
30 -31 -32 33 -7 -1 2 -3 4 41 0
30 -31 -32 33 -7 -1 2 -3 -4 83 0
30 -31 -32 -33 7 1 2 3 4 97 0
30 -31 -32 -33 7 1 2 3 -4 175 0
30 -31 -32 -33 7 1 2 -3 4 60 0
30 -31 -32 -33 7 1 2 -3 -4 150 0
30 -31 -32 -33 7 1 -2 3 4 121 0
30 -31 -32 -33 7 1 -2 3 -4 61 0
30 -31 -32 -33 7 1 -2 -3 4 151 0
30 -31 -32 -33 7 1 -2 -3 -4 114 0
30 -31 -32 -33 7 -1 2 3 4 142 0
30 -31 -32 -33 7 -1 2 3 -4 152 0
30 -31 -32 -33 7 -1 2 -3 4 173 0
30 -31 -32 -33 7 -1 2 -3 -4 133 0
30 -31 -32 -33 -7 1 2 3 4 99 0
30 -31 -32 -33 -7 1 2 3 -4 106 0
30 -31 -32 -33 -7 1 2 -3 4 70 0
30 -31 -32 -33 -7 1 2 -3 -4 193 0
30 -31 -32 -33 -7 1 -2 3 4 164 0
30 -31 -32 -33 -7 1 -2 3 -4 218 0
30 -31 -32 -33 -7 1 -2 -3 4 53 0
30 -31 -32 -33 -7 1 -2 -3 -4 138 0
30 -31 -32 -33 -7 -1 2 3 4 187 0
30 -31 -32 -33 -7 -1 2 3 -4 74 0
30 -31 -32 -33 -7 -1 2 -3 4 41 0
30 -31 -32 -33 -7 -1 2 -3 -4 192 0
-30 31 32 33 7 1 2 3 4 66 0
-30 31 32 33 7 1 2 3 -4 141 0
-30 31 32 33 7 1 2 -3 4 167 0
-30 31 32 33 7 1 2 -3 -4 198 0
-30 31 32 33 7 1 -2 3 4 79 0
-30 31 32 33 7 1 -2 3 -4 55 0
-30 31 32 33 7 1 -2 -3 4 119 0
-30 31 32 33 7 1 -2 -3 -4 212 0
-30 31 32 33 7 -1 2 3 4 62 0
-30 31 32 33 7 -1 2 3 -4 115 0
-30 31 32 33 7 -1 2 -3 4 134 0
-30 31 32 33 7 -1 2 -3 -4 72 0
-30 31 32 33 -7 1 2 3 4 93 0
-30 31 32 33 -7 1 2 3 -4 75 0
-30 31 32 33 -7 1 2 -3 4 143 0
-30 31 32 33 -7 1 2 -3 -4 54 0
-30 31 32 33 -7 1 -2 3 4 135 0
-30 31 32 33 -7 1 -2 3 -4 218 0
-30 31 32 33 -7 1 -2 -3 4 36 0
-30 31 32 33 -7 1 -2 -3 -4 139 0
-30 31 32 33 -7 -1 2 3 4 187 0
-30 31 32 33 -7 -1 2 3 -4 136 0
-30 31 32 33 -7 -1 2 -3 4 227 0
-30 31 32 33 -7 -1 2 -3 -4 83 0
-30 31 32 -33 7 1 2 3 4 97 0
-30 31 32 -33 7 1 2 3 -4 175 0
-30 31 32 -33 7 1 2 -3 4 122 0
-30 31 32 -33 7 1 2 -3 -4 63 0
-30 31 32 -33 7 1 -2 3 4 188 0
-30 31 32 -33 7 1 -2 3 -4 61 0
-30 31 32 -33 7 1 -2 -3 4 165 0
-30 31 32 -33 7 1 -2 -3 -4 47 0
-30 31 32 -33 7 -1 2 3 4 190 0
-30 31 32 -33 7 -1 2 3 -4 76 0
-30 31 32 -33 7 -1 2 -3 4 191 0
-30 31 32 -33 7 -1 2 -3 -4 176 0
-30 31 32 -33 -7 1 2 3 4 120 0
-30 31 32 -33 -7 1 2 3 -4 75 0
-30 31 32 -33 -7 1 2 -3 4 78 0
-30 31 32 -33 -7 1 2 -3 -4 77 0
-30 31 32 -33 -7 1 -2 3 4 144 0
-30 31 32 -33 -7 1 -2 3 -4 177 0
-30 31 32 -33 -7 1 -2 -3 4 162 0
-30 31 32 -33 -7 1 -2 -3 -4 139 0
-30 31 32 -33 -7 -1 2 3 4 64 0
-30 31 32 -33 -7 -1 2 3 -4 100 0
-30 31 32 -33 -7 -1 2 -3 4 101 0
-30 31 32 -33 -7 -1 2 -3 -4 180 0
-30 31 -32 33 7 1 2 3 4 137 0
-30 31 -32 33 7 1 2 3 -4 231 0
-30 31 -32 33 7 1 2 -3 4 80 0
-30 31 -32 33 7 1 2 -3 -4 116 0
-30 31 -32 33 7 1 -2 3 4 154 0
-30 31 -32 33 7 1 -2 3 -4 46 0
-30 31 -32 33 7 1 -2 -3 4 145 0
-30 31 -32 33 7 1 -2 -3 -4 132 0
-30 31 -32 33 7 -1 2 3 4 62 0
-30 31 -32 33 7 -1 2 3 -4 140 0
-30 31 -32 33 7 -1 2 -3 4 178 0
-30 31 -32 33 7 -1 2 -3 -4 123 0
-30 31 -32 33 -7 1 2 3 4 93 0
-30 31 -32 33 -7 1 2 3 -4 204 0
-30 31 -32 33 -7 1 2 -3 4 146 0
-30 31 -32 33 -7 1 2 -3 -4 77 0
-30 31 -32 33 -7 1 -2 3 4 126 0
-30 31 -32 33 -7 1 -2 3 -4 201 0
-30 31 -32 33 -7 1 -2 -3 4 110 0
-30 31 -32 33 -7 1 -2 -3 -4 98 0
-30 31 -32 33 -7 -1 2 3 4 81 0
-30 31 -32 33 -7 -1 2 3 -4 113 0
-30 31 -32 33 -7 -1 2 -3 4 147 0
-30 31 -32 33 -7 -1 2 -3 -4 192 0
-30 31 -32 -33 7 1 2 3 4 125 0
-30 31 -32 -33 7 1 2 3 -4 231 0
-30 31 -32 -33 7 1 2 -3 4 80 0
-30 31 -32 -33 7 1 2 -3 -4 228 0
-30 31 -32 -33 7 1 -2 3 4 69 0
-30 31 -32 -33 7 1 -2 3 -4 44 0
-30 31 -32 -33 7 1 -2 -3 4 200 0
-30 31 -32 -33 7 1 -2 -3 -4 166 0
-30 31 -32 -33 7 -1 2 3 4 67 0
-30 31 -32 -33 7 -1 2 3 -4 124 0
-30 31 -32 -33 7 -1 2 -3 4 216 0
-30 31 -32 -33 7 -1 2 -3 -4 148 0
-30 31 -32 -33 -7 1 2 3 4 68 0
-30 31 -32 -33 -7 1 2 3 -4 179 0
-30 31 -32 -33 -7 1 2 -3 4 78 0
-30 31 -32 -33 -7 1 2 -3 -4 220 0
-30 31 -32 -33 -7 1 -2 3 4 181 0
-30 31 -32 -33 -7 1 -2 3 -4 104 0
-30 31 -32 -33 -7 1 -2 -3 4 205 0
-30 31 -32 -33 -7 1 -2 -3 -4 82 0
-30 31 -32 -33 -7 -1 2 3 4 153 0
-30 31 -32 -33 -7 -1 2 3 -4 217 0
-30 31 -32 -33 -7 -1 2 -3 4 45 0
-30 31 -32 -33 -7 -1 2 -3 -4 180 0
-30 -31 32 33 0
-30 -31 32 -33 0
-30 -31 -32 33 0
-30 -31 -32 -33 0
